c WARNING: for repeatability, setting FPU to use double precision
d VARIABLES            139150       
d CONSTRAINTS          505760       
c ============================[ Problem Statistics ]=============================
c |                                                                             |
c |  Number of variables:        139150                                         |
c |  Number of clauses:          505760                                         |
c |  Parse time:                   0.09 s                                       |
c |                                                                             |
c ============================[ Search Statistics ]==============================
c | Conflicts |          ORIGINAL         |          LEARNT          | Progress |
c |           |    Vars  Clauses Literals |    Limit  Clauses Lit/Cl |          |
c ===============================================================================
c |       100 |  108975   427538  1074157 |   156763      100     18 | 21.685 % |
c |       250 |  108975   427538  1074157 |   172440      250     14 | 21.685 % |
c |       475 |  108975   427538  1074157 |   189684      475     43 | 21.685 % |
c |       812 |  108975   427538  1074157 |   208652      812     42 | 21.685 % |
c |      1318 |  108975   427538  1074157 |   229518     1318     33 | 21.685 % |
c |      2077 |  108975   427538  1074157 |   252469     2077     39 | 21.685 % |
c |      3216 |  108975   427538  1074157 |   277716     3216     91 | 21.685 % |
c |      4924 |  108975   427538  1074157 |   305488     4924     86 | 21.685 % |
c |      7486 |  108975   427538  1074157 |   336037     7486     95 | 21.685 % |
c |     11330 |  108975   427538  1074157 |   369641    11330    106 | 21.685 % |
c |     17096 |  108975   427538  1074157 |   406605    17096    117 | 21.685 % |
c |     25745 |  108975   427538  1074157 |   447265    25745    131 | 21.685 % |
c |     38719 |  108975   427538  1074157 |   491992    38719    133 | 21.685 % |
c |     58180 |  108975   427538  1074157 |   541191    58180    150 | 21.685 % |
c |     87372 |  108975   427538  1074157 |   595310    87372    153 | 21.685 % |
c |    131161 |  108975   427538  1074157 |   654841   131161    162 | 21.685 % |
c |    196845 |  108975   427538  1074157 |   720326   196845    165 | 21.685 % |
c |    295371 |  108975   427538  1074157 |   792358   295371    174 | 21.685 % |
c |    443160 |  108975   427538  1074157 |   871594   443160    171 | 21.685 % |
c |    664843 |  108975   427538  1074157 |   958753   664843    173 | 21.685 % |
c |    997368 |  108975   427538  1074157 |  1054629   997368    175 | 21.685 % |
c |   1496156 |  108975   427538  1074157 |  1160092   420797    155 | 21.685 % |
c |   2244338 |  108975   427538  1074157 |  1276101  1168979    163 | 21.685 % |
c ===============================================================================
c restarts              : 4095
c conflicts             : 2302510        (1283 /sec)
c decisions             : 5130445        (0.00 % random) (2859 /sec)
c propagations          : 3249807851     (1811152 /sec)
c conflict literals     : 385991873      (42.92 % deleted)
d RESTARTS             4095
d FAILURES             2302510      
d NODES                5130445      
d BACKTRACKS           5130445      
d PROPAGATIONS         3249807851   
d NOGOODSIZE           167.64 
d MEMORY               1037.00 
d TIME                 1794.33 

s UNKNOWN
